c This cnf file is generated with the following input: k = 3, n = 150, r = 0.2
p cnf 150 30
144 71 109 0
-132 72 -11 0
130 -122 63 0
64 -92 -141 0
53 61 79 0
33 57 60 0
52 -118 -104 0
-55 6 106 0
65 131 116 0
-49 -4 58 0
133 150 -46 0
-74 -76 -64 0
-148 -119 -28 0
99 137 -11 0
6 62 -80 0
32 -50 -16 0
-49 -32 63 0
34 -57 -139 0
-50 114 -25 0
117 -73 -126 0
-56 -26 -92 0
-97 -66 59 0
-115 -133 -112 0
23 -125 63 0
-3 38 72 0
147 -125 -128 0
-50 34 6 0
-84 -8 -142 0
-85 105 -77 0
50 -133 -110 0
